units lj
atom_style atomic
lattice fcc 0.8442
region box block 0 10 0 10 0 10
create_box 1 box
create_atoms 1 box

# Define masses
mass 1 1.0

# Split box into hot and cold regions
region hot block 0 5 0 10 0 10
region cold block 5 10 0 10 0 10
group hot_atoms region hot
group cold_atoms region cold

# Assign velocities: Hot region (high KE), Cold region (low KE)
velocity hot_atoms create 2.0 87287 loop geom
velocity cold_atoms create 0.5 87287 loop geom

# Pair potential and neighbor settings
pair_style lj/cut 2.5
pair_coeff 1 1 1.0 1.0 2.5

# Time integration
fix 1 all nve

# Output settings
dump 1 all custom 100 dump.lammpstrj id type xs ys zs vx vy vz
dump_modify 1 sort id

# Run the simulation
run 1000
